Version identifier: 12.10.0.0 | 2019-11-26 | 843d4de
CPXPARAM_WorkMem                                 28672
Tried aggregator 2 times.
Aggregator did 20 substitutions.
Reduced MIP has 73 rows, 90 columns, and 321 nonzeros.
Reduced MIP has 90 binaries, 0 generals, 0 SOSs, and 0 indicators.
Presolve time = 0,00 sec. (0,30 ticks)
Found incumbent of value 336,000000 after 0,00 sec. (0,59 ticks)
Probing time = 0,00 sec. (0,09 ticks)
Tried aggregator 1 time.
Detecting symmetries...
MIP Presolve eliminated 9 rows and 0 columns.
MIP Presolve added 18 rows and 0 columns.
Reduced MIP has 82 rows, 90 columns, and 330 nonzeros.
Reduced MIP has 90 binaries, 0 generals, 0 SOSs, and 0 indicators.
Presolve time = 0,00 sec. (0,36 ticks)
Probing time = 0,00 sec. (0,09 ticks)
Clique table members: 211.
MIP emphasis: balance optimality and feasibility.
MIP search method: dynamic search.
Parallel mode: deterministic, using up to 16 threads.
Root relaxation solution time = 0,00 sec. (0,17 ticks)

        Nodes                                         Cuts/
   Node  Left     Objective  IInf  Best Integer    Best Bound    ItCnt     Gap

*     0+    0                          336,0000        0,0000           100,00%
*     0+    0                          239,0000        0,0000           100,00%
*     0+    0                          222,0000        0,0000           100,00%
      0     0      112,0000    49      222,0000      112,0000       29   49,55%
*     0+    0                          218,0000      112,0000            48,62%
      0     0      112,0000    49      218,0000      Cuts: 80       63   48,62%
      0     0      112,0000    49      218,0000     Cuts: 120       88   48,62%
      0     0      112,1443    49      218,0000     Cuts: 115      133   48,56%
      0     0      112,3546    49      218,0000      Cuts: 11      144   48,46%
      0     0      112,6926    49      218,0000      Fract: 1      154   48,31%
      0     0      113,9586    49      218,0000       Cuts: 4      162   47,73%
*     0+    0                          195,0000      113,9586            41,56%
*     0+    0                          193,0000      113,9586            40,95%
      0     2      113,9586    89      193,0000      146,2667      162   24,21%
Elapsed time = 0,06 sec. (12,78 ticks, tree = 0,02 MB, solutions = 6)

Clique cuts applied:  53
Cover cuts applied:  95
Implied bound cuts applied:  2
Mixed integer rounding cuts applied:  14
Zero-half cuts applied:  6
Gomory fractional cuts applied:  3

Root node processing (before b&c):
  Real time             =    0,05 sec. (12,68 ticks)
Parallel b&c, 16 threads:
  Real time             =    0,04 sec. (8,92 ticks)
  Sync time (average)   =    0,02 sec.
  Wait time (average)   =    0,00 sec.
                          ------------
Total (root+branch&cut) =    0,08 sec. (21,61 ticks)
